4 
5  42 59 
6  12 27 40 53 
7  08 23 38 53 
8  08 23 38 53 
9  08 23 38 53 
10  10 25 40 55 
11  10 25 40 55 
12  10 25 40 55 
13  10 25 40 55 
14  10 25 40 55 
15  10 25 40 55 
16  10 25 40 55 
17  10 25 40 55 
18  10 25 40 55 
19  10 25 40 55 
20  10 25 40 55 
21  10 25 40 55 
22  10 27 42 57 
23  08 21 
0 
